T = 150;
V = 15;
Q = 15;
L = 11;
C = 3;
P = 15;
time = [|  0, 25, 10, 17, 10, 15, 15, 17, 17,  8, 15, 10,  8, 21, 15,  8, 15, 23, 15, 17, 17, 15, 15, 10, 15, 21, 15, 10, 15, 21,  8,  8,  8,  8,  8,  8,  8,  8,  8,  8,  8,  8,  8,  8,  8,  8,  8,  8,  8,  8,  8,  8,  8,  8,  8,  8,  8,  8,  8,  8,
        | 25,  0, 16, 33, 16, 26, 17, 32, 32, 32, 26, 16, 32, 41, 26, 32, 17, 31, 21, 33, 32, 21, 26, 16, 26, 41, 17, 16, 26, 41, 20, 20, 20, 20, 20, 20, 20, 20, 20, 20, 20, 20, 20, 20, 20, 20, 20, 20, 20, 20, 20, 20, 20, 20, 20, 20, 20, 20, 20, 20,
        | 10, 16,  0, 19,  0, 18, 13, 23, 23, 17, 18,  0, 17, 29, 18, 17, 13, 25, 15, 19, 23, 15, 18,  0, 18, 29, 13,  0, 18, 29,  7,  7,  7,  7,  7,  7,  7,  7,  7,  7,  7,  7,  7,  7,  7,  7,  7,  7,  7,  7,  7,  7,  7,  7,  7,  7,  7,  7,  7,  7,
        | 17, 33, 19,  0, 19, 32, 30, 33, 33, 18, 32, 19, 18, 34, 32, 18, 30, 40, 31,  0, 33, 31, 32, 19, 32, 34, 30, 19, 32, 34, 23, 23, 23, 23, 23, 23, 23, 23, 23, 23, 23, 23, 23, 23, 23, 23, 23, 23, 23, 23, 23, 23, 23, 23, 23, 23, 23, 23, 23, 23,
        | 10, 16,  0, 19,  0, 18, 13, 23, 23, 17, 18,  0, 17, 29, 18, 17, 13, 25, 15, 19, 23, 15, 18,  0, 18, 29, 13,  0, 18, 29,  7,  7,  7,  7,  7,  7,  7,  7,  7,  7,  7,  7,  7,  7,  7,  7,  7,  7,  7,  7,  7,  7,  7,  7,  7,  7,  7,  7,  7,  7,
        | 15, 26, 18, 32, 18,  0,  9,  8,  8, 18,  0, 18, 18, 17,  0, 18,  9,  9,  5, 32,  8,  5,  0, 18,  0, 17,  9, 18,  0, 17, 11, 11, 11, 11, 11, 11, 11, 11, 11, 11, 11, 11, 11, 11, 11, 11, 11, 11, 11, 11, 11, 11, 11, 11, 11, 11, 11, 11, 11, 11,
        | 15, 17, 13, 30, 13,  9,  0, 15, 15, 20,  9, 13, 20, 25,  9, 20,  0, 14,  4, 30, 15,  4,  9, 13,  9, 25,  0, 13,  9, 25,  8,  8,  8,  8,  8,  8,  8,  8,  8,  8,  8,  8,  8,  8,  8,  8,  8,  8,  8,  8,  8,  8,  8,  8,  8,  8,  8,  8,  8,  8,
        | 17, 32, 23, 33, 23,  8, 15,  0,  0, 17,  8, 23, 17, 10,  8, 17, 15, 10, 13, 33,  0, 13,  8, 23,  8, 10, 15, 23,  8, 10, 16, 16, 16, 16, 16, 16, 16, 16, 16, 16, 16, 16, 16, 16, 16, 16, 16, 16, 16, 16, 16, 16, 16, 16, 16, 16, 16, 16, 16, 16,
        | 17, 32, 23, 33, 23,  8, 15,  0,  0, 17,  8, 23, 17, 10,  8, 17, 15, 10, 13, 33,  0, 13,  8, 23,  8, 10, 15, 23,  8, 10, 16, 16, 16, 16, 16, 16, 16, 16, 16, 16, 16, 16, 16, 16, 16, 16, 16, 16, 16, 16, 16, 16, 16, 16, 16, 16, 16, 16, 16, 16,
        |  8, 32, 17, 18, 17, 18, 20, 17, 17,  0, 18, 17,  0, 17, 18,  0, 20, 25, 20, 18, 17, 20, 18, 17, 18, 17, 20, 17, 18, 17, 14, 14, 14, 14, 14, 14, 14, 14, 14, 14, 14, 14, 14, 14, 14, 14, 14, 14, 14, 14, 14, 14, 14, 14, 14, 14, 14, 14, 14, 14,
        | 15, 26, 18, 32, 18,  0,  9,  8,  8, 18,  0, 18, 18, 17,  0, 18,  9,  9,  5, 32,  8,  5,  0, 18,  0, 17,  9, 18,  0, 17, 11, 11, 11, 11, 11, 11, 11, 11, 11, 11, 11, 11, 11, 11, 11, 11, 11, 11, 11, 11, 11, 11, 11, 11, 11, 11, 11, 11, 11, 11,
        | 10, 16,  0, 19,  0, 18, 13, 23, 23, 17, 18,  0, 17, 29, 18, 17, 13, 25, 15, 19, 23, 15, 18,  0, 18, 29, 13,  0, 18, 29,  7,  7,  7,  7,  7,  7,  7,  7,  7,  7,  7,  7,  7,  7,  7,  7,  7,  7,  7,  7,  7,  7,  7,  7,  7,  7,  7,  7,  7,  7,
        |  8, 32, 17, 18, 17, 18, 20, 17, 17,  0, 18, 17,  0, 17, 18,  0, 20, 25, 20, 18, 17, 20, 18, 17, 18, 17, 20, 17, 18, 17, 14, 14, 14, 14, 14, 14, 14, 14, 14, 14, 14, 14, 14, 14, 14, 14, 14, 14, 14, 14, 14, 14, 14, 14, 14, 14, 14, 14, 14, 14,
        | 21, 41, 29, 34, 29, 17, 25, 10, 10, 17, 17, 29, 17,  0, 17, 17, 25, 19, 22, 34, 10, 22, 17, 29, 17,  0, 25, 29, 17,  0, 22, 22, 22, 22, 22, 22, 22, 22, 22, 22, 22, 22, 22, 22, 22, 22, 22, 22, 22, 22, 22, 22, 22, 22, 22, 22, 22, 22, 22, 22,
        | 15, 26, 18, 32, 18,  0,  9,  8,  8, 18,  0, 18, 18, 17,  0, 18,  9,  9,  5, 32,  8,  5,  0, 18,  0, 17,  9, 18,  0, 17, 11, 11, 11, 11, 11, 11, 11, 11, 11, 11, 11, 11, 11, 11, 11, 11, 11, 11, 11, 11, 11, 11, 11, 11, 11, 11, 11, 11, 11, 11,
        |  8, 32, 17, 18, 17, 18, 20, 17, 17,  0, 18, 17,  0, 17, 18,  0, 20, 25, 20, 18, 17, 20, 18, 17, 18, 17, 20, 17, 18, 17, 14, 14, 14, 14, 14, 14, 14, 14, 14, 14, 14, 14, 14, 14, 14, 14, 14, 14, 14, 14, 14, 14, 14, 14, 14, 14, 14, 14, 14, 14,
        | 15, 17, 13, 30, 13,  9,  0, 15, 15, 20,  9, 13, 20, 25,  9, 20,  0, 14,  4, 30, 15,  4,  9, 13,  9, 25,  0, 13,  9, 25,  8,  8,  8,  8,  8,  8,  8,  8,  8,  8,  8,  8,  8,  8,  8,  8,  8,  8,  8,  8,  8,  8,  8,  8,  8,  8,  8,  8,  8,  8,
        | 23, 31, 25, 40, 25,  9, 14, 10, 10, 25,  9, 25, 25, 19,  9, 25, 14,  0, 12, 40, 10, 12,  9, 25,  9, 19, 14, 25,  9, 19, 19, 19, 19, 19, 19, 19, 19, 19, 19, 19, 19, 19, 19, 19, 19, 19, 19, 19, 19, 19, 19, 19, 19, 19, 19, 19, 19, 19, 19, 19,
        | 15, 21, 15, 31, 15,  5,  4, 13, 13, 20,  5, 15, 20, 22,  5, 20,  4, 12,  0, 31, 13,  0,  5, 15,  5, 22,  4, 15,  5, 22,  9,  9,  9,  9,  9,  9,  9,  9,  9,  9,  9,  9,  9,  9,  9,  9,  9,  9,  9,  9,  9,  9,  9,  9,  9,  9,  9,  9,  9,  9,
        | 17, 33, 19,  0, 19, 32, 30, 33, 33, 18, 32, 19, 18, 34, 32, 18, 30, 40, 31,  0, 33, 31, 32, 19, 32, 34, 30, 19, 32, 34, 23, 23, 23, 23, 23, 23, 23, 23, 23, 23, 23, 23, 23, 23, 23, 23, 23, 23, 23, 23, 23, 23, 23, 23, 23, 23, 23, 23, 23, 23,
        | 17, 32, 23, 33, 23,  8, 15,  0,  0, 17,  8, 23, 17, 10,  8, 17, 15, 10, 13, 33,  0, 13,  8, 23,  8, 10, 15, 23,  8, 10, 16, 16, 16, 16, 16, 16, 16, 16, 16, 16, 16, 16, 16, 16, 16, 16, 16, 16, 16, 16, 16, 16, 16, 16, 16, 16, 16, 16, 16, 16,
        | 15, 21, 15, 31, 15,  5,  4, 13, 13, 20,  5, 15, 20, 22,  5, 20,  4, 12,  0, 31, 13,  0,  5, 15,  5, 22,  4, 15,  5, 22,  9,  9,  9,  9,  9,  9,  9,  9,  9,  9,  9,  9,  9,  9,  9,  9,  9,  9,  9,  9,  9,  9,  9,  9,  9,  9,  9,  9,  9,  9,
        | 15, 26, 18, 32, 18,  0,  9,  8,  8, 18,  0, 18, 18, 17,  0, 18,  9,  9,  5, 32,  8,  5,  0, 18,  0, 17,  9, 18,  0, 17, 11, 11, 11, 11, 11, 11, 11, 11, 11, 11, 11, 11, 11, 11, 11, 11, 11, 11, 11, 11, 11, 11, 11, 11, 11, 11, 11, 11, 11, 11,
        | 10, 16,  0, 19,  0, 18, 13, 23, 23, 17, 18,  0, 17, 29, 18, 17, 13, 25, 15, 19, 23, 15, 18,  0, 18, 29, 13,  0, 18, 29,  7,  7,  7,  7,  7,  7,  7,  7,  7,  7,  7,  7,  7,  7,  7,  7,  7,  7,  7,  7,  7,  7,  7,  7,  7,  7,  7,  7,  7,  7,
        | 15, 26, 18, 32, 18,  0,  9,  8,  8, 18,  0, 18, 18, 17,  0, 18,  9,  9,  5, 32,  8,  5,  0, 18,  0, 17,  9, 18,  0, 17, 11, 11, 11, 11, 11, 11, 11, 11, 11, 11, 11, 11, 11, 11, 11, 11, 11, 11, 11, 11, 11, 11, 11, 11, 11, 11, 11, 11, 11, 11,
        | 21, 41, 29, 34, 29, 17, 25, 10, 10, 17, 17, 29, 17,  0, 17, 17, 25, 19, 22, 34, 10, 22, 17, 29, 17,  0, 25, 29, 17,  0, 22, 22, 22, 22, 22, 22, 22, 22, 22, 22, 22, 22, 22, 22, 22, 22, 22, 22, 22, 22, 22, 22, 22, 22, 22, 22, 22, 22, 22, 22,
        | 15, 17, 13, 30, 13,  9,  0, 15, 15, 20,  9, 13, 20, 25,  9, 20,  0, 14,  4, 30, 15,  4,  9, 13,  9, 25,  0, 13,  9, 25,  8,  8,  8,  8,  8,  8,  8,  8,  8,  8,  8,  8,  8,  8,  8,  8,  8,  8,  8,  8,  8,  8,  8,  8,  8,  8,  8,  8,  8,  8,
        | 10, 16,  0, 19,  0, 18, 13, 23, 23, 17, 18,  0, 17, 29, 18, 17, 13, 25, 15, 19, 23, 15, 18,  0, 18, 29, 13,  0, 18, 29,  7,  7,  7,  7,  7,  7,  7,  7,  7,  7,  7,  7,  7,  7,  7,  7,  7,  7,  7,  7,  7,  7,  7,  7,  7,  7,  7,  7,  7,  7,
        | 15, 26, 18, 32, 18,  0,  9,  8,  8, 18,  0, 18, 18, 17,  0, 18,  9,  9,  5, 32,  8,  5,  0, 18,  0, 17,  9, 18,  0, 17, 11, 11, 11, 11, 11, 11, 11, 11, 11, 11, 11, 11, 11, 11, 11, 11, 11, 11, 11, 11, 11, 11, 11, 11, 11, 11, 11, 11, 11, 11,
        | 21, 41, 29, 34, 29, 17, 25, 10, 10, 17, 17, 29, 17,  0, 17, 17, 25, 19, 22, 34, 10, 22, 17, 29, 17,  0, 25, 29, 17,  0, 22, 22, 22, 22, 22, 22, 22, 22, 22, 22, 22, 22, 22, 22, 22, 22, 22, 22, 22, 22, 22, 22, 22, 22, 22, 22, 22, 22, 22, 22,
        |  8, 20,  7, 23,  7, 11,  8, 16, 16, 14, 11,  7, 14, 22, 11, 14,  8, 19,  9, 23, 16,  9, 11,  7, 11, 22,  8,  7, 11, 22,  0,  0,  0,  0,  0,  0,  0,  0,  0,  0,  0,  0,  0,  0,  0,  0,  0,  0,  0,  0,  0,  0,  0,  0,  0,  0,  0,  0,  0,  0,
        |  8, 20,  7, 23,  7, 11,  8, 16, 16, 14, 11,  7, 14, 22, 11, 14,  8, 19,  9, 23, 16,  9, 11,  7, 11, 22,  8,  7, 11, 22,  0,  0,  0,  0,  0,  0,  0,  0,  0,  0,  0,  0,  0,  0,  0,  0,  0,  0,  0,  0,  0,  0,  0,  0,  0,  0,  0,  0,  0,  0,
        |  8, 20,  7, 23,  7, 11,  8, 16, 16, 14, 11,  7, 14, 22, 11, 14,  8, 19,  9, 23, 16,  9, 11,  7, 11, 22,  8,  7, 11, 22,  0,  0,  0,  0,  0,  0,  0,  0,  0,  0,  0,  0,  0,  0,  0,  0,  0,  0,  0,  0,  0,  0,  0,  0,  0,  0,  0,  0,  0,  0,
        |  8, 20,  7, 23,  7, 11,  8, 16, 16, 14, 11,  7, 14, 22, 11, 14,  8, 19,  9, 23, 16,  9, 11,  7, 11, 22,  8,  7, 11, 22,  0,  0,  0,  0,  0,  0,  0,  0,  0,  0,  0,  0,  0,  0,  0,  0,  0,  0,  0,  0,  0,  0,  0,  0,  0,  0,  0,  0,  0,  0,
        |  8, 20,  7, 23,  7, 11,  8, 16, 16, 14, 11,  7, 14, 22, 11, 14,  8, 19,  9, 23, 16,  9, 11,  7, 11, 22,  8,  7, 11, 22,  0,  0,  0,  0,  0,  0,  0,  0,  0,  0,  0,  0,  0,  0,  0,  0,  0,  0,  0,  0,  0,  0,  0,  0,  0,  0,  0,  0,  0,  0,
        |  8, 20,  7, 23,  7, 11,  8, 16, 16, 14, 11,  7, 14, 22, 11, 14,  8, 19,  9, 23, 16,  9, 11,  7, 11, 22,  8,  7, 11, 22,  0,  0,  0,  0,  0,  0,  0,  0,  0,  0,  0,  0,  0,  0,  0,  0,  0,  0,  0,  0,  0,  0,  0,  0,  0,  0,  0,  0,  0,  0,
        |  8, 20,  7, 23,  7, 11,  8, 16, 16, 14, 11,  7, 14, 22, 11, 14,  8, 19,  9, 23, 16,  9, 11,  7, 11, 22,  8,  7, 11, 22,  0,  0,  0,  0,  0,  0,  0,  0,  0,  0,  0,  0,  0,  0,  0,  0,  0,  0,  0,  0,  0,  0,  0,  0,  0,  0,  0,  0,  0,  0,
        |  8, 20,  7, 23,  7, 11,  8, 16, 16, 14, 11,  7, 14, 22, 11, 14,  8, 19,  9, 23, 16,  9, 11,  7, 11, 22,  8,  7, 11, 22,  0,  0,  0,  0,  0,  0,  0,  0,  0,  0,  0,  0,  0,  0,  0,  0,  0,  0,  0,  0,  0,  0,  0,  0,  0,  0,  0,  0,  0,  0,
        |  8, 20,  7, 23,  7, 11,  8, 16, 16, 14, 11,  7, 14, 22, 11, 14,  8, 19,  9, 23, 16,  9, 11,  7, 11, 22,  8,  7, 11, 22,  0,  0,  0,  0,  0,  0,  0,  0,  0,  0,  0,  0,  0,  0,  0,  0,  0,  0,  0,  0,  0,  0,  0,  0,  0,  0,  0,  0,  0,  0,
        |  8, 20,  7, 23,  7, 11,  8, 16, 16, 14, 11,  7, 14, 22, 11, 14,  8, 19,  9, 23, 16,  9, 11,  7, 11, 22,  8,  7, 11, 22,  0,  0,  0,  0,  0,  0,  0,  0,  0,  0,  0,  0,  0,  0,  0,  0,  0,  0,  0,  0,  0,  0,  0,  0,  0,  0,  0,  0,  0,  0,
        |  8, 20,  7, 23,  7, 11,  8, 16, 16, 14, 11,  7, 14, 22, 11, 14,  8, 19,  9, 23, 16,  9, 11,  7, 11, 22,  8,  7, 11, 22,  0,  0,  0,  0,  0,  0,  0,  0,  0,  0,  0,  0,  0,  0,  0,  0,  0,  0,  0,  0,  0,  0,  0,  0,  0,  0,  0,  0,  0,  0,
        |  8, 20,  7, 23,  7, 11,  8, 16, 16, 14, 11,  7, 14, 22, 11, 14,  8, 19,  9, 23, 16,  9, 11,  7, 11, 22,  8,  7, 11, 22,  0,  0,  0,  0,  0,  0,  0,  0,  0,  0,  0,  0,  0,  0,  0,  0,  0,  0,  0,  0,  0,  0,  0,  0,  0,  0,  0,  0,  0,  0,
        |  8, 20,  7, 23,  7, 11,  8, 16, 16, 14, 11,  7, 14, 22, 11, 14,  8, 19,  9, 23, 16,  9, 11,  7, 11, 22,  8,  7, 11, 22,  0,  0,  0,  0,  0,  0,  0,  0,  0,  0,  0,  0,  0,  0,  0,  0,  0,  0,  0,  0,  0,  0,  0,  0,  0,  0,  0,  0,  0,  0,
        |  8, 20,  7, 23,  7, 11,  8, 16, 16, 14, 11,  7, 14, 22, 11, 14,  8, 19,  9, 23, 16,  9, 11,  7, 11, 22,  8,  7, 11, 22,  0,  0,  0,  0,  0,  0,  0,  0,  0,  0,  0,  0,  0,  0,  0,  0,  0,  0,  0,  0,  0,  0,  0,  0,  0,  0,  0,  0,  0,  0,
        |  8, 20,  7, 23,  7, 11,  8, 16, 16, 14, 11,  7, 14, 22, 11, 14,  8, 19,  9, 23, 16,  9, 11,  7, 11, 22,  8,  7, 11, 22,  0,  0,  0,  0,  0,  0,  0,  0,  0,  0,  0,  0,  0,  0,  0,  0,  0,  0,  0,  0,  0,  0,  0,  0,  0,  0,  0,  0,  0,  0,
        |  8, 20,  7, 23,  7, 11,  8, 16, 16, 14, 11,  7, 14, 22, 11, 14,  8, 19,  9, 23, 16,  9, 11,  7, 11, 22,  8,  7, 11, 22,  0,  0,  0,  0,  0,  0,  0,  0,  0,  0,  0,  0,  0,  0,  0,  0,  0,  0,  0,  0,  0,  0,  0,  0,  0,  0,  0,  0,  0,  0,
        |  8, 20,  7, 23,  7, 11,  8, 16, 16, 14, 11,  7, 14, 22, 11, 14,  8, 19,  9, 23, 16,  9, 11,  7, 11, 22,  8,  7, 11, 22,  0,  0,  0,  0,  0,  0,  0,  0,  0,  0,  0,  0,  0,  0,  0,  0,  0,  0,  0,  0,  0,  0,  0,  0,  0,  0,  0,  0,  0,  0,
        |  8, 20,  7, 23,  7, 11,  8, 16, 16, 14, 11,  7, 14, 22, 11, 14,  8, 19,  9, 23, 16,  9, 11,  7, 11, 22,  8,  7, 11, 22,  0,  0,  0,  0,  0,  0,  0,  0,  0,  0,  0,  0,  0,  0,  0,  0,  0,  0,  0,  0,  0,  0,  0,  0,  0,  0,  0,  0,  0,  0,
        |  8, 20,  7, 23,  7, 11,  8, 16, 16, 14, 11,  7, 14, 22, 11, 14,  8, 19,  9, 23, 16,  9, 11,  7, 11, 22,  8,  7, 11, 22,  0,  0,  0,  0,  0,  0,  0,  0,  0,  0,  0,  0,  0,  0,  0,  0,  0,  0,  0,  0,  0,  0,  0,  0,  0,  0,  0,  0,  0,  0,
        |  8, 20,  7, 23,  7, 11,  8, 16, 16, 14, 11,  7, 14, 22, 11, 14,  8, 19,  9, 23, 16,  9, 11,  7, 11, 22,  8,  7, 11, 22,  0,  0,  0,  0,  0,  0,  0,  0,  0,  0,  0,  0,  0,  0,  0,  0,  0,  0,  0,  0,  0,  0,  0,  0,  0,  0,  0,  0,  0,  0,
        |  8, 20,  7, 23,  7, 11,  8, 16, 16, 14, 11,  7, 14, 22, 11, 14,  8, 19,  9, 23, 16,  9, 11,  7, 11, 22,  8,  7, 11, 22,  0,  0,  0,  0,  0,  0,  0,  0,  0,  0,  0,  0,  0,  0,  0,  0,  0,  0,  0,  0,  0,  0,  0,  0,  0,  0,  0,  0,  0,  0,
        |  8, 20,  7, 23,  7, 11,  8, 16, 16, 14, 11,  7, 14, 22, 11, 14,  8, 19,  9, 23, 16,  9, 11,  7, 11, 22,  8,  7, 11, 22,  0,  0,  0,  0,  0,  0,  0,  0,  0,  0,  0,  0,  0,  0,  0,  0,  0,  0,  0,  0,  0,  0,  0,  0,  0,  0,  0,  0,  0,  0,
        |  8, 20,  7, 23,  7, 11,  8, 16, 16, 14, 11,  7, 14, 22, 11, 14,  8, 19,  9, 23, 16,  9, 11,  7, 11, 22,  8,  7, 11, 22,  0,  0,  0,  0,  0,  0,  0,  0,  0,  0,  0,  0,  0,  0,  0,  0,  0,  0,  0,  0,  0,  0,  0,  0,  0,  0,  0,  0,  0,  0,
        |  8, 20,  7, 23,  7, 11,  8, 16, 16, 14, 11,  7, 14, 22, 11, 14,  8, 19,  9, 23, 16,  9, 11,  7, 11, 22,  8,  7, 11, 22,  0,  0,  0,  0,  0,  0,  0,  0,  0,  0,  0,  0,  0,  0,  0,  0,  0,  0,  0,  0,  0,  0,  0,  0,  0,  0,  0,  0,  0,  0,
        |  8, 20,  7, 23,  7, 11,  8, 16, 16, 14, 11,  7, 14, 22, 11, 14,  8, 19,  9, 23, 16,  9, 11,  7, 11, 22,  8,  7, 11, 22,  0,  0,  0,  0,  0,  0,  0,  0,  0,  0,  0,  0,  0,  0,  0,  0,  0,  0,  0,  0,  0,  0,  0,  0,  0,  0,  0,  0,  0,  0,
        |  8, 20,  7, 23,  7, 11,  8, 16, 16, 14, 11,  7, 14, 22, 11, 14,  8, 19,  9, 23, 16,  9, 11,  7, 11, 22,  8,  7, 11, 22,  0,  0,  0,  0,  0,  0,  0,  0,  0,  0,  0,  0,  0,  0,  0,  0,  0,  0,  0,  0,  0,  0,  0,  0,  0,  0,  0,  0,  0,  0,
        |  8, 20,  7, 23,  7, 11,  8, 16, 16, 14, 11,  7, 14, 22, 11, 14,  8, 19,  9, 23, 16,  9, 11,  7, 11, 22,  8,  7, 11, 22,  0,  0,  0,  0,  0,  0,  0,  0,  0,  0,  0,  0,  0,  0,  0,  0,  0,  0,  0,  0,  0,  0,  0,  0,  0,  0,  0,  0,  0,  0,
        |  8, 20,  7, 23,  7, 11,  8, 16, 16, 14, 11,  7, 14, 22, 11, 14,  8, 19,  9, 23, 16,  9, 11,  7, 11, 22,  8,  7, 11, 22,  0,  0,  0,  0,  0,  0,  0,  0,  0,  0,  0,  0,  0,  0,  0,  0,  0,  0,  0,  0,  0,  0,  0,  0,  0,  0,  0,  0,  0,  0,
        |  8, 20,  7, 23,  7, 11,  8, 16, 16, 14, 11,  7, 14, 22, 11, 14,  8, 19,  9, 23, 16,  9, 11,  7, 11, 22,  8,  7, 11, 22,  0,  0,  0,  0,  0,  0,  0,  0,  0,  0,  0,  0,  0,  0,  0,  0,  0,  0,  0,  0,  0,  0,  0,  0,  0,  0,  0,  0,  0,  0,
        |  8, 20,  7, 23,  7, 11,  8, 16, 16, 14, 11,  7, 14, 22, 11, 14,  8, 19,  9, 23, 16,  9, 11,  7, 11, 22,  8,  7, 11, 22,  0,  0,  0,  0,  0,  0,  0,  0,  0,  0,  0,  0,  0,  0,  0,  0,  0,  0,  0,  0,  0,  0,  0,  0,  0,  0,  0,  0,  0,  0|];
l =     [  7,  2,  8,  1,  8,  3,  5,  9,  9,  4,  3,  8,  4, 10,  3,  4,  5,  6, 11,  1,  9, 11,  3,  8,  3, 10,  5,  8,  3, 10];
a =     [  8, 43, 21, 40, 18, 11, 46, 20, 17, 33, 16, 11, 15, 23, 22, 29, 74, 63, 81, 53, 30, 65, 38, 54, 63, 44, 36, 51, 57, 49];
b =     [ 41, 69, 57, 66, 46, 36, 66, 36, 46, 69, 53, 44, 38, 45, 41, 80,121,112,124,104, 79,110, 79,103,118,102,100,105, 99,103];
s =     [ 13, 14, 17, 10, 16, 11, 15, 10, 14, 12, 11, 12, 19, 17, 10, 13, 14, 17, 10, 16, 11, 15, 10, 14, 12, 11, 12, 19, 17, 10];
q =     [  4,  4,  1,  2,  2,  2,  4,  4,  2,  3,  3,  2,  3,  3,  4, -4, -4, -1, -2, -2, -2, -4, -4, -2, -3, -3, -2, -3, -3, -4];
